p cnf 15 25
-15 14 -6 0
-15 -11 -4 0
15 -10 5 0
-15 -7 2 0
14 13 -1 0
-14 12 -11 0
-14 -12 -4 0
14 11 1 0
-14 11 1 0
14 -7 -4 0
-14 6 -4 0
14 2 -1 0
13 -12 4 0
-12 -8 6 0
12 -5 -3 0
-12 -3 2 0
11 10 -1 0
-11 -8 5 0
-11 -8 4 0
10 -6 1 0
-8 -6 -1 0
-8 -4 1 0
7 6 3 0
-7 -6 1 0
-4 3 1 0
